Transformed from Quantum Espresso       
   1.00000000000000     
     2.4651879934732261    0.0000000000000586    0.0000000000000000
    -1.2325939962364838    2.1349020928871649   -0.0000000000000000
     0.0000000000000000    0.0000000000000000   14.5708808900987172
   C B
    2 1
Direct
 -0.0000000000000000 -0.0000000000000000  0.0000000000000000
  -0.1000000000000000 -0.2000000000000000  0.3000000000000000
  0.3333333332999970  0.6666666667000030 -0.0000000000000000
 
  0.00000000E+00  0.00000000E+00  0.00000000E+00
  0.00000000E+00  0.00000000E+00  0.00000000E+00
